outputs/knapsack48.output
CPLEX 12.9.0.0: optimal integer solution; objective 14519
4 MIP simplex iterations
0 branch-and-bound nodes
Select [*] :=
 0 1    5 1   10 0   15 1   20 1   25 0   30 1   35 1   40 1   45 1
 1 1    6 0   11 0   16 0   21 1   26 1   31 1   36 1   41 1   46 0
 2 1    7 0   12 1   17 0   22 0   27 0   32 1   37 1   42 1   47 1
 3 0    8 1   13 1   18 1   23 1   28 1   33 1   38 1   43 1
 4 1    9 1   14 0   19 1   24 0   29 1   34 0   39 1   44 1
;

